c 9th DIMACS Implementation Challenge: Shortest Paths
c http://www.dis.uniroma1.it/~challenge9
c TIGER/Line graph USA-road-t.NY
c
p sp 264346 733846
c graph contains 264346 nodes and 733846 arcs
c
a 1 2 2008
a 2 1 2008
a 3 4 395
a 4 3 395
a 5 6 1935
a 6 5 1935
a 7 8 3828
a 8 7 3828
a 9 10 4182
a 10 9 4182
a 9 11 3500
a 11 9 3500
a 1 12 2105
a 12 1 2105
a 2 13 1478
a 13 2 1478
a 14 15 3427
a 15 14 3427
a 16 17 4148
a 17 16 4148
a 18 19 2529
a 19 18 2529
a 20 21 3065
a 21 20 3065
a 20 22 3163
a 22 20 3163
a 23 24 6768
a 24 23 6768
a 25 26 1300
a 26 25 1300
a 27 28 1957
a 28 27 1957
a 29 30 1295
a 30 29 1295
a 31 32 8530
a 32 31 8530
a 33 34 4986
a 34 33 4986
a 33 35 843
a 35 33 843
a 36 37 908
a 37 36 908
a 38 39 2545
a 39 38 2545
a 40 41 980
a 41 40 980
a 29 42 2686
a 42 29 2686
a 43 44 1425
a 44 43 1425
a 44 45 4410
a 45 44 4410
a 46 47 2759
a 47 46 2759
a 2 48 1541
a 48 2 1541
a 49 50 3787
a 50 49 3787
a 49 51 2964
a 51 49 2964

